p cnf 430 1488
-191 155 0
-191 177 0
-191 -59 0
-191 145 0
-191 13 0
191 -155 -177 59 -145 -13 0
-192 112 0
-192 144 0
-192 151 0
-192 -62 0
-192 51 0
192 -112 -144 -151 62 -51 0
-193 -125 0
-193 -135 0
-193 -116 0
-193 -66 0
-193 108 0
193 125 135 116 66 -108 0
-194 90 0
-194 -81 0
-194 137 0
-194 31 0
-194 25 0
194 -90 81 -137 -31 -25 0
-195 5 0
-195 -97 0
-195 173 0
-195 120 0
-195 126 0
195 -5 97 -173 -120 -126 0
191 192 193 194 195 0
-196 -67 0
-196 141 0
-196 150 0
-196 21 0
-196 140 0
196 67 -141 -150 -21 -140 0
-197 -72 0
-197 128 0
-197 -85 0
-197 17 0
-197 -187 0
197 72 -128 85 -17 187 0
-198 43 0
-198 10 0
-198 30 0
-198 -146 0
-198 -87 0
198 -43 -10 -30 146 87 0
-199 -95 0
-199 164 0
-199 -163 0
-199 -56 0
-199 2 0
199 95 -164 163 56 -2 0
-200 30 0
-200 13 0
-200 32 0
-200 -1 0
-200 -41 0
200 -30 -13 -32 1 41 0
196 197 198 199 200 0
-201 2 0
-201 157 0
-201 109 0
-201 99 0
-201 -95 0
201 -2 -157 -109 -99 95 0
-202 101 0
-202 155 0
-202 -174 0
-202 -180 0
-202 81 0
202 -101 -155 174 180 -81 0
-203 176 0
-203 167 0
-203 -46 0
-203 -72 0
-203 -4 0
203 -176 -167 46 72 4 0
-204 88 0
-204 -148 0
-204 171 0
-204 70 0
-204 11 0
204 -88 148 -171 -70 -11 0
-205 -135 0
-205 79 0
-205 122 0
-205 4 0
-205 -62 0
205 135 -79 -122 -4 62 0
201 202 203 204 205 0
-206 -175 0
-206 -20 0
-206 -23 0
-206 -31 0
-206 -179 0
206 175 20 23 31 179 0
-207 -8 0
-207 -57 0
-207 167 0
-207 20 0
-207 -61 0
207 8 57 -167 -20 61 0
-208 128 0
-208 189 0
-208 -62 0
-208 106 0
-208 47 0
208 -128 -189 62 -106 -47 0
-209 -171 0
-209 -56 0
-209 -68 0
-209 -47 0
-209 57 0
209 171 56 68 47 -57 0
-210 -11 0
-210 7 0
-210 -122 0
-210 94 0
-210 165 0
210 11 -7 122 -94 -165 0
206 207 208 209 210 0
-211 -111 0
-211 -78 0
-211 179 0
-211 -130 0
-211 -21 0
211 111 78 -179 130 21 0
-212 -138 0
-212 45 0
-212 -51 0
-212 91 0
-212 -19 0
212 138 -45 51 -91 19 0
-213 99 0
-213 -10 0
-213 -18 0
-213 41 0
-213 35 0
213 -99 10 18 -41 -35 0
-214 -87 0
-214 136 0
-214 -79 0
-214 -178 0
-214 -188 0
214 87 -136 79 178 188 0
-215 -105 0
-215 13 0
-215 27 0
-215 -32 0
-215 -152 0
215 105 -13 -27 32 152 0
211 212 213 214 215 0
-216 -86 0
-216 -129 0
-216 -143 0
-216 -135 0
-216 -159 0
216 86 129 143 135 159 0
-217 -64 0
-217 56 0
-217 -181 0
-217 185 0
-217 189 0
217 64 -56 181 -185 -189 0
-218 -25 0
-218 143 0
-218 -31 0
-218 -179 0
-218 -129 0
218 25 -143 31 179 129 0
-219 39 0
-219 -18 0
-219 102 0
-219 -12 0
-219 -144 0
219 -39 18 -102 12 144 0
-220 -145 0
-220 -37 0
-220 122 0
-220 133 0
-220 137 0
220 145 37 -122 -133 -137 0
216 217 218 219 220 0
-221 154 0
-221 -83 0
-221 -50 0
-221 -155 0
-221 93 0
221 -154 83 50 155 -93 0
-222 -184 0
-222 174 0
-222 -25 0
-222 -176 0
-222 -49 0
222 184 -174 25 176 49 0
-223 -180 0
-223 80 0
-223 160 0
-223 184 0
-223 -124 0
223 180 -80 -160 -184 124 0
-224 -23 0
-224 -42 0
-224 89 0
-224 186 0
-224 -72 0
224 23 42 -89 -186 72 0
-225 -80 0
-225 149 0
-225 178 0
-225 -190 0
-225 99 0
225 80 -149 -178 190 -99 0
221 222 223 224 225 0
-226 149 0
-226 112 0
-226 52 0
-226 108 0
-226 -23 0
226 -149 -112 -52 -108 23 0
-227 54 0
-227 99 0
-227 -131 0
-227 -180 0
-227 -14 0
227 -54 -99 131 180 14 0
-228 -72 0
-228 -118 0
-228 66 0
-228 25 0
-228 75 0
228 72 118 -66 -25 -75 0
-229 -176 0
-229 -145 0
-229 123 0
-229 -35 0
-229 -44 0
229 176 145 -123 35 44 0
-230 -166 0
-230 109 0
-230 9 0
-230 68 0
-230 -116 0
230 166 -109 -9 -68 116 0
226 227 228 229 230 0
-231 82 0
-231 -127 0
-231 -190 0
-231 -103 0
-231 151 0
231 -82 127 190 103 -151 0
-232 -142 0
-232 -44 0
-232 -76 0
-232 74 0
-232 -37 0
232 142 44 76 -74 37 0
-233 -60 0
-233 100 0
-233 173 0
-233 67 0
-233 -97 0
233 60 -100 -173 -67 97 0
-234 -38 0
-234 143 0
-234 4 0
-234 118 0
-234 134 0
234 38 -143 -4 -118 -134 0
-235 31 0
-235 3 0
-235 -96 0
-235 -57 0
-235 -86 0
235 -31 -3 96 57 86 0
231 232 233 234 235 0
-236 46 0
-236 -55 0
-236 170 0
-236 119 0
-236 122 0
236 -46 55 -170 -119 -122 0
-237 -114 0
-237 -95 0
-237 160 0
-237 -78 0
-237 184 0
237 114 95 -160 78 -184 0
-238 -119 0
-238 179 0
-238 -167 0
-238 -126 0
-238 13 0
238 119 -179 167 126 -13 0
-239 -42 0
-239 -44 0
-239 -168 0
-239 61 0
-239 165 0
239 42 44 168 -61 -165 0
-240 185 0
-240 -14 0
-240 -62 0
-240 16 0
-240 -118 0
240 -185 14 62 -16 118 0
236 237 238 239 240 0
-241 -118 0
-241 33 0
-241 -96 0
-241 94 0
-241 -121 0
241 118 -33 96 -94 121 0
-242 13 0
-242 -43 0
-242 -177 0
-242 -90 0
-242 -14 0
242 -13 43 177 90 14 0
-243 -63 0
-243 6 0
-243 -190 0
-243 112 0
-243 100 0
243 63 -6 190 -112 -100 0
-244 -167 0
-244 -143 0
-244 -90 0
-244 -37 0
-244 -38 0
244 167 143 90 37 38 0
-245 68 0
-245 -36 0
-245 105 0
-245 -189 0
-245 -170 0
245 -68 36 -105 189 170 0
241 242 243 244 245 0
-246 -119 0
-246 -81 0
-246 1 0
-246 165 0
-246 137 0
246 119 81 -1 -165 -137 0
-247 52 0
-247 -60 0
-247 50 0
-247 15 0
-247 9 0
247 -52 60 -50 -15 -9 0
-248 104 0
-248 -157 0
-248 -4 0
-248 44 0
-248 12 0
248 -104 157 4 -44 -12 0
-249 7 0
-249 -101 0
-249 -55 0
-249 80 0
-249 -118 0
249 -7 101 55 -80 118 0
-250 -108 0
-250 178 0
-250 89 0
-250 -19 0
-250 78 0
250 108 -178 -89 19 -78 0
246 247 248 249 250 0
-251 -132 0
-251 141 0
-251 18 0
-251 -60 0
-251 155 0
251 132 -141 -18 60 -155 0
-252 134 0
-252 -149 0
-252 189 0
-252 175 0
-252 30 0
252 -134 149 -189 -175 -30 0
-253 -160 0
-253 39 0
-253 -177 0
-253 -184 0
-253 -11 0
253 160 -39 177 184 11 0
-254 -158 0
-254 -103 0
-254 -80 0
-254 -94 0
-254 92 0
254 158 103 80 94 -92 0
-255 10 0
-255 -161 0
-255 70 0
-255 -159 0
-255 -126 0
255 -10 161 -70 159 126 0
251 252 253 254 255 0
-256 -115 0
-256 185 0
-256 -40 0
-256 -84 0
-256 -163 0
256 115 -185 40 84 163 0
-257 159 0
-257 -140 0
-257 143 0
-257 -56 0
-257 5 0
257 -159 140 -143 56 -5 0
-258 -4 0
-258 -36 0
-258 120 0
-258 -159 0
-258 -108 0
258 4 36 -120 159 108 0
-259 91 0
-259 9 0
-259 -161 0
-259 47 0
-259 -93 0
259 -91 -9 161 -47 93 0
-260 157 0
-260 -135 0
-260 -107 0
-260 -73 0
-260 -27 0
260 -157 135 107 73 27 0
256 257 258 259 260 0
-261 179 0
-261 166 0
-261 148 0
-261 87 0
-261 -189 0
261 -179 -166 -148 -87 189 0
-262 182 0
-262 156 0
-262 105 0
-262 18 0
-262 107 0
262 -182 -156 -105 -18 -107 0
-263 -118 0
-263 107 0
-263 79 0
-263 -40 0
-263 190 0
263 118 -107 -79 40 -190 0
-264 -29 0
-264 112 0
-264 -188 0
-264 -158 0
-264 179 0
264 29 -112 188 158 -179 0
-265 118 0
-265 -158 0
-265 -124 0
-265 -66 0
-265 -39 0
265 -118 158 124 66 39 0
261 262 263 264 265 0
-266 -157 0
-266 134 0
-266 -73 0
-266 29 0
-266 -160 0
266 157 -134 73 -29 160 0
-267 125 0
-267 -117 0
-267 -67 0
-267 183 0
-267 85 0
267 -125 117 67 -183 -85 0
-268 -98 0
-268 -51 0
-268 -64 0
-268 -52 0
-268 -78 0
268 98 51 64 52 78 0
-269 100 0
-269 115 0
-269 70 0
-269 -30 0
-269 170 0
269 -100 -115 -70 30 -170 0
-270 -148 0
-270 133 0
-270 -31 0
-270 -93 0
-270 -132 0
270 148 -133 31 93 132 0
266 267 268 269 270 0
-271 1 0
-271 32 0
-271 40 0
-271 -174 0
-271 50 0
271 -1 -32 -40 174 -50 0
-272 30 0
-272 -111 0
-272 -8 0
-272 36 0
-272 51 0
272 -30 111 8 -36 -51 0
-273 -84 0
-273 173 0
-273 -134 0
-273 119 0
-273 118 0
273 84 -173 134 -119 -118 0
-274 91 0
-274 35 0
-274 -173 0
-274 -129 0
-274 -156 0
274 -91 -35 173 129 156 0
-275 134 0
-275 -112 0
-275 152 0
-275 76 0
-275 -107 0
275 -134 112 -152 -76 107 0
271 272 273 274 275 0
-276 180 0
-276 32 0
-276 -41 0
-276 27 0
-276 143 0
276 -180 -32 41 -27 -143 0
-277 -39 0
-277 1 0
-277 168 0
-277 -111 0
-277 -174 0
277 39 -1 -168 111 174 0
-278 109 0
-278 -97 0
-278 -2 0
-278 -180 0
-278 -153 0
278 -109 97 2 180 153 0
-279 -105 0
-279 -109 0
-279 28 0
-279 90 0
-279 -136 0
279 105 109 -28 -90 136 0
-280 -106 0
-280 -172 0
-280 103 0
-280 -171 0
-280 142 0
280 106 172 -103 171 -142 0
276 277 278 279 280 0
-281 186 0
-281 -7 0
-281 -74 0
-281 90 0
-281 -37 0
281 -186 7 74 -90 37 0
-282 -127 0
-282 -68 0
-282 -166 0
-282 -126 0
-282 148 0
282 127 68 166 126 -148 0
-283 -125 0
-283 -93 0
-283 -135 0
-283 -18 0
-283 109 0
283 125 93 135 18 -109 0
-284 -70 0
-284 100 0
-284 157 0
-284 -44 0
-284 121 0
284 70 -100 -157 44 -121 0
-285 -81 0
-285 5 0
-285 132 0
-285 -150 0
-285 147 0
285 81 -5 -132 150 -147 0
281 282 283 284 285 0
-286 17 0
-286 49 0
-286 -38 0
-286 88 0
-286 52 0
286 -17 -49 38 -88 -52 0
-287 32 0
-287 155 0
-287 -154 0
-287 -29 0
-287 -101 0
287 -32 -155 154 29 101 0
-288 -172 0
-288 101 0
-288 133 0
-288 -80 0
-288 175 0
288 172 -101 -133 80 -175 0
-289 20 0
-289 61 0
-289 179 0
-289 -22 0
-289 -96 0
289 -20 -61 -179 22 96 0
-290 -73 0
-290 64 0
-290 -186 0
-290 -58 0
-290 -85 0
290 73 -64 186 58 85 0
286 287 288 289 290 0
-291 87 0
-291 8 0
-291 129 0
-291 144 0
-291 -147 0
291 -87 -8 -129 -144 147 0
-292 18 0
-292 68 0
-292 -10 0
-292 135 0
-292 -67 0
292 -18 -68 10 -135 67 0
-293 36 0
-293 185 0
-293 96 0
-293 104 0
-293 -27 0
293 -36 -185 -96 -104 27 0
-294 -138 0
-294 -5 0
-294 95 0
-294 -125 0
-294 130 0
294 138 5 -95 125 -130 0
-295 7 0
-295 -107 0
-295 124 0
-295 -23 0
-295 -33 0
295 -7 107 -124 23 33 0
291 292 293 294 295 0
-296 48 0
-296 -33 0
-296 -115 0
-296 94 0
-296 18 0
296 -48 33 115 -94 -18 0
-297 6 0
-297 40 0
-297 -130 0
-297 -52 0
-297 -112 0
297 -6 -40 130 52 112 0
-298 -77 0
-298 -187 0
-298 -45 0
-298 88 0
-298 -133 0
298 77 187 45 -88 133 0
-299 -80 0
-299 40 0
-299 32 0
-299 -93 0
-299 -65 0
299 80 -40 -32 93 65 0
-300 37 0
-300 -59 0
-300 62 0
-300 46 0
-300 91 0
300 -37 59 -62 -46 -91 0
296 297 298 299 300 0
-301 135 0
-301 -137 0
-301 14 0
-301 -162 0
-301 86 0
301 -135 137 -14 162 -86 0
-302 170 0
-302 -96 0
-302 -130 0
-302 124 0
-302 -7 0
302 -170 96 130 -124 7 0
-303 178 0
-303 43 0
-303 78 0
-303 -52 0
-303 176 0
303 -178 -43 -78 52 -176 0
-304 139 0
-304 103 0
-304 -37 0
-304 -115 0
-304 -3 0
304 -139 -103 37 115 3 0
-305 111 0
-305 -120 0
-305 148 0
-305 -118 0
-305 -10 0
305 -111 120 -148 118 10 0
301 302 303 304 305 0
-306 -100 0
-306 146 0
-306 9 0
-306 -115 0
-306 104 0
306 100 -146 -9 115 -104 0
-307 145 0
-307 -167 0
-307 42 0
-307 165 0
-307 -116 0
307 -145 167 -42 -165 116 0
-308 -24 0
-308 82 0
-308 -109 0
-308 -71 0
-308 -20 0
308 24 -82 109 71 20 0
-309 88 0
-309 -172 0
-309 140 0
-309 152 0
-309 29 0
309 -88 172 -140 -152 -29 0
-310 69 0
-310 184 0
-310 -67 0
-310 112 0
-310 -16 0
310 -69 -184 67 -112 16 0
306 307 308 309 310 0
-311 1 0
-311 9 0
-311 -70 0
-311 65 0
-311 169 0
311 -1 -9 70 -65 -169 0
-312 -8 0
-312 177 0
-312 171 0
-312 188 0
-312 -108 0
312 8 -177 -171 -188 108 0
-313 -74 0
-313 122 0
-313 -68 0
-313 -97 0
-313 129 0
313 74 -122 68 97 -129 0
-314 146 0
-314 54 0
-314 -126 0
-314 -32 0
-314 16 0
314 -146 -54 126 32 -16 0
-315 183 0
-315 82 0
-315 -84 0
-315 110 0
-315 -58 0
315 -183 -82 84 -110 58 0
311 312 313 314 315 0
-316 34 0
-316 -99 0
-316 98 0
-316 82 0
-316 103 0
316 -34 99 -98 -82 -103 0
-317 181 0
-317 -166 0
-317 -163 0
-317 -173 0
-317 60 0
317 -181 166 163 173 -60 0
-318 131 0
-318 -183 0
-318 164 0
-318 71 0
-318 -1 0
318 -131 183 -164 -71 1 0
-319 -170 0
-319 -71 0
-319 69 0
-319 20 0
-319 5 0
319 170 71 -69 -20 -5 0
-320 123 0
-320 -38 0
-320 187 0
-320 -60 0
-320 -84 0
320 -123 38 -187 60 84 0
316 317 318 319 320 0
-321 170 0
-321 -164 0
-321 -89 0
-321 -69 0
-321 80 0
321 -170 164 89 69 -80 0
-322 104 0
-322 -84 0
-322 133 0
-322 -70 0
-322 -23 0
322 -104 84 -133 70 23 0
-323 -54 0
-323 156 0
-323 -67 0
-323 182 0
-323 -121 0
323 54 -156 67 -182 121 0
-324 177 0
-324 -82 0
-324 171 0
-324 -128 0
-324 74 0
324 -177 82 -171 128 -74 0
-325 -4 0
-325 -75 0
-325 83 0
-325 -72 0
-325 122 0
325 4 75 -83 72 -122 0
321 322 323 324 325 0
-326 -164 0
-326 -143 0
-326 55 0
-326 -88 0
-326 -7 0
326 164 143 -55 88 7 0
-327 -45 0
-327 -26 0
-327 -42 0
-327 -34 0
-327 6 0
327 45 26 42 34 -6 0
-328 -85 0
-328 28 0
-328 -110 0
-328 -161 0
-328 -124 0
328 85 -28 110 161 124 0
-329 140 0
-329 100 0
-329 -30 0
-329 -162 0
-329 118 0
329 -140 -100 30 162 -118 0
-330 93 0
-330 85 0
-330 -61 0
-330 -140 0
-330 148 0
330 -93 -85 61 140 -148 0
326 327 328 329 330 0
-331 -61 0
-331 -131 0
-331 182 0
-331 74 0
-331 -75 0
331 61 131 -182 -74 75 0
-332 -33 0
-332 145 0
-332 68 0
-332 6 0
-332 26 0
332 33 -145 -68 -6 -26 0
-333 -114 0
-333 73 0
-333 68 0
-333 -14 0
-333 161 0
333 114 -73 -68 14 -161 0
-334 19 0
-334 184 0
-334 -121 0
-334 117 0
-334 -43 0
334 -19 -184 121 -117 43 0
-335 -71 0
-335 -160 0
-335 -185 0
-335 35 0
-335 70 0
335 71 160 185 -35 -70 0
331 332 333 334 335 0
-336 -140 0
-336 -58 0
-336 -160 0
-336 11 0
-336 -19 0
336 140 58 160 -11 19 0
-337 40 0
-337 161 0
-337 150 0
-337 -183 0
-337 -126 0
337 -40 -161 -150 183 126 0
-338 -53 0
-338 -67 0
-338 -32 0
-338 133 0
-338 59 0
338 53 67 32 -133 -59 0
-339 126 0
-339 96 0
-339 9 0
-339 -61 0
-339 -163 0
339 -126 -96 -9 61 163 0
-340 -146 0
-340 99 0
-340 -1 0
-340 183 0
-340 150 0
340 146 -99 1 -183 -150 0
336 337 338 339 340 0
-341 -125 0
-341 -101 0
-341 -25 0
-341 170 0
-341 -143 0
341 125 101 25 -170 143 0
-342 111 0
-342 -7 0
-342 -172 0
-342 -50 0
-342 -46 0
342 -111 7 172 50 46 0
-343 76 0
-343 -85 0
-343 174 0
-343 123 0
-343 116 0
343 -76 85 -174 -123 -116 0
-344 -8 0
-344 -130 0
-344 -154 0
-344 24 0
-344 150 0
344 8 130 154 -24 -150 0
-345 -143 0
-345 -48 0
-345 131 0
-345 58 0
-345 136 0
345 143 48 -131 -58 -136 0
341 342 343 344 345 0
-346 -27 0
-346 133 0
-346 164 0
-346 -78 0
-346 -124 0
346 27 -133 -164 78 124 0
-347 -60 0
-347 139 0
-347 167 0
-347 123 0
-347 -147 0
347 60 -139 -167 -123 147 0
-348 -61 0
-348 163 0
-348 120 0
-348 1 0
-348 74 0
348 61 -163 -120 -1 -74 0
-349 -66 0
-349 7 0
-349 -20 0
-349 -184 0
-349 -36 0
349 66 -7 20 184 36 0
-350 -161 0
-350 49 0
-350 -155 0
-350 189 0
-350 -167 0
350 161 -49 155 -189 167 0
346 347 348 349 350 0
-351 1 0
-351 6 0
-351 10 0
-351 19 0
-351 -52 0
351 -1 -6 -10 -19 52 0
-352 50 0
-352 49 0
-352 -27 0
-352 63 0
-352 97 0
352 -50 -49 27 -63 -97 0
-353 -183 0
-353 -10 0
-353 95 0
-353 -60 0
-353 -22 0
353 183 10 -95 60 22 0
-354 39 0
-354 -163 0
-354 -53 0
-354 8 0
-354 96 0
354 -39 163 53 -8 -96 0
-355 -159 0
-355 -89 0
-355 85 0
-355 -133 0
-355 -151 0
355 159 89 -85 133 151 0
351 352 353 354 355 0
-356 160 0
-356 155 0
-356 175 0
-356 -46 0
-356 -76 0
356 -160 -155 -175 46 76 0
-357 -70 0
-357 -180 0
-357 134 0
-357 122 0
-357 179 0
357 70 180 -134 -122 -179 0
-358 102 0
-358 67 0
-358 184 0
-358 148 0
-358 50 0
358 -102 -67 -184 -148 -50 0
-359 26 0
-359 -163 0
-359 -64 0
-359 50 0
-359 27 0
359 -26 163 64 -50 -27 0
-360 -63 0
-360 -103 0
-360 -36 0
-360 56 0
-360 -114 0
360 63 103 36 -56 114 0
356 357 358 359 360 0
-361 -39 0
-361 70 0
-361 -12 0
-361 148 0
-361 -25 0
361 39 -70 12 -148 25 0
-362 43 0
-362 -7 0
-362 27 0
-362 126 0
-362 -18 0
362 -43 7 -27 -126 18 0
-363 -120 0
-363 -160 0
-363 -27 0
-363 -101 0
-363 -117 0
363 120 160 27 101 117 0
-364 -128 0
-364 162 0
-364 88 0
-364 -148 0
-364 -78 0
364 128 -162 -88 148 78 0
-365 124 0
-365 -139 0
-365 -96 0
-365 -90 0
-365 -189 0
365 -124 139 96 90 189 0
361 362 363 364 365 0
-366 126 0
-366 57 0
-366 -11 0
-366 -14 0
-366 132 0
366 -126 -57 11 14 -132 0
-367 86 0
-367 -1 0
-367 -14 0
-367 -29 0
-367 4 0
367 -86 1 14 29 -4 0
-368 -37 0
-368 131 0
-368 -173 0
-368 103 0
-368 83 0
368 37 -131 173 -103 -83 0
-369 -163 0
-369 -27 0
-369 109 0
-369 98 0
-369 -58 0
369 163 27 -109 -98 58 0
-370 -129 0
-370 168 0
-370 -113 0
-370 -1 0
-370 80 0
370 129 -168 113 1 -80 0
366 367 368 369 370 0
-371 145 0
-371 159 0
-371 28 0
-371 47 0
-371 10 0
371 -145 -159 -28 -47 -10 0
-372 -83 0
-372 185 0
-372 175 0
-372 99 0
-372 69 0
372 83 -185 -175 -99 -69 0
-373 25 0
-373 90 0
-373 188 0
-373 64 0
-373 22 0
373 -25 -90 -188 -64 -22 0
-374 -37 0
-374 -42 0
-374 -26 0
-374 -61 0
-374 -176 0
374 37 42 26 61 176 0
-375 -162 0
-375 -102 0
-375 -85 0
-375 152 0
-375 -140 0
375 162 102 85 -152 140 0
371 372 373 374 375 0
-376 160 0
-376 -83 0
-376 120 0
-376 -159 0
-376 -59 0
376 -160 83 -120 159 59 0
-377 121 0
-377 165 0
-377 -111 0
-377 -19 0
-377 10 0
377 -121 -165 111 19 -10 0
-378 155 0
-378 -176 0
-378 -174 0
-378 2 0
-378 64 0
378 -155 176 174 -2 -64 0
-379 -149 0
-379 -117 0
-379 -39 0
-379 -176 0
-379 -136 0
379 149 117 39 176 136 0
-380 -19 0
-380 9 0
-380 73 0
-380 -39 0
-380 123 0
380 19 -9 -73 39 -123 0
376 377 378 379 380 0
-381 3 0
-381 109 0
-381 129 0
-381 -26 0
-381 113 0
381 -3 -109 -129 26 -113 0
-382 -1 0
-382 123 0
-382 -127 0
-382 190 0
-382 -4 0
382 1 -123 127 -190 4 0
-383 -106 0
-383 -140 0
-383 31 0
-383 27 0
-383 -32 0
383 106 140 -31 -27 32 0
-384 58 0
-384 -167 0
-384 177 0
-384 55 0
-384 106 0
384 -58 167 -177 -55 -106 0
-385 178 0
-385 77 0
-385 -135 0
-385 -72 0
-385 -60 0
385 -178 -77 135 72 60 0
381 382 383 384 385 0
-386 82 0
-386 -73 0
-386 2 0
-386 -138 0
-386 75 0
386 -82 73 -2 138 -75 0
-387 -106 0
-387 -132 0
-387 82 0
-387 122 0
-387 -148 0
387 106 132 -82 -122 148 0
-388 -111 0
-388 47 0
-388 -64 0
-388 -22 0
-388 -152 0
388 111 -47 64 22 152 0
-389 -71 0
-389 -143 0
-389 28 0
-389 26 0
-389 126 0
389 71 143 -28 -26 -126 0
-390 -71 0
-390 -152 0
-390 30 0
-390 164 0
-390 -28 0
390 71 152 -30 -164 28 0
386 387 388 389 390 0
-391 27 0
-391 -80 0
-391 -127 0
-391 109 0
-391 90 0
391 -27 80 127 -109 -90 0
-392 164 0
-392 152 0
-392 188 0
-392 137 0
-392 112 0
392 -164 -152 -188 -137 -112 0
-393 -5 0
-393 7 0
-393 -80 0
-393 48 0
-393 -15 0
393 5 -7 80 -48 15 0
-394 -74 0
-394 126 0
-394 -97 0
-394 82 0
-394 -151 0
394 74 -126 97 -82 151 0
-395 -35 0
-395 47 0
-395 -118 0
-395 -22 0
-395 -108 0
395 35 -47 118 22 108 0
391 392 393 394 395 0
-396 60 0
-396 -142 0
-396 23 0
-396 -146 0
-396 73 0
396 -60 142 -23 146 -73 0
-397 -94 0
-397 -135 0
-397 156 0
-397 188 0
-397 -190 0
397 94 135 -156 -188 190 0
-398 3 0
-398 13 0
-398 133 0
-398 -27 0
-398 -167 0
398 -3 -13 -133 27 167 0
-399 -72 0
-399 54 0
-399 146 0
-399 3 0
-399 -112 0
399 72 -54 -146 -3 112 0
-400 -79 0
-400 11 0
-400 -61 0
-400 -140 0
-400 71 0
400 79 -11 61 140 -71 0
396 397 398 399 400 0
-401 37 0
-401 -131 0
-401 -41 0
-401 29 0
-401 152 0
401 -37 131 41 -29 -152 0
-402 -16 0
-402 -183 0
-402 -29 0
-402 -74 0
-402 43 0
402 16 183 29 74 -43 0
-403 -13 0
-403 144 0
-403 4 0
-403 -58 0
-403 -116 0
403 13 -144 -4 58 116 0
-404 110 0
-404 149 0
-404 -164 0
-404 64 0
-404 181 0
404 -110 -149 164 -64 -181 0
-405 40 0
-405 27 0
-405 164 0
-405 131 0
-405 154 0
405 -40 -27 -164 -131 -154 0
401 402 403 404 405 0
-406 188 0
-406 65 0
-406 140 0
-406 14 0
-406 173 0
406 -188 -65 -140 -14 -173 0
-407 47 0
-407 186 0
-407 43 0
-407 86 0
-407 -44 0
407 -47 -186 -43 -86 44 0
-408 37 0
-408 -157 0
-408 -185 0
-408 -125 0
-408 -5 0
408 -37 157 185 125 5 0
-409 50 0
-409 54 0
-409 125 0
-409 -149 0
-409 103 0
409 -50 -54 -125 149 -103 0
-410 -126 0
-410 -53 0
-410 85 0
-410 -74 0
-410 -28 0
410 126 53 -85 74 28 0
406 407 408 409 410 0
-411 175 0
-411 104 0
-411 92 0
-411 -139 0
-411 -137 0
411 -175 -104 -92 139 137 0
-412 -105 0
-412 111 0
-412 41 0
-412 167 0
-412 9 0
412 105 -111 -41 -167 -9 0
-413 -151 0
-413 142 0
-413 47 0
-413 -58 0
-413 -167 0
413 151 -142 -47 58 167 0
-414 -120 0
-414 59 0
-414 161 0
-414 57 0
-414 185 0
414 120 -59 -161 -57 -185 0
-415 -51 0
-415 -155 0
-415 -153 0
-415 -50 0
-415 58 0
415 51 155 153 50 -58 0
411 412 413 414 415 0
-416 99 0
-416 -149 0
-416 -146 0
-416 -55 0
-416 160 0
416 -99 149 146 55 -160 0
-417 148 0
-417 12 0
-417 184 0
-417 -160 0
-417 156 0
417 -148 -12 -184 160 -156 0
-418 148 0
-418 184 0
-418 -42 0
-418 117 0
-418 176 0
418 -148 -184 42 -117 -176 0
-419 66 0
-419 -141 0
-419 -184 0
-419 102 0
-419 138 0
419 -66 141 184 -102 -138 0
-420 -164 0
-420 -125 0
-420 -178 0
-420 -119 0
-420 150 0
420 164 125 178 119 -150 0
416 417 418 419 420 0
-421 138 0
-421 148 0
-421 46 0
-421 -187 0
-421 -4 0
421 -138 -148 -46 187 4 0
-422 136 0
-422 17 0
-422 -42 0
-422 -180 0
-422 129 0
422 -136 -17 42 180 -129 0
-423 24 0
-423 139 0
-423 53 0
-423 28 0
-423 15 0
423 -24 -139 -53 -28 -15 0
-424 52 0
-424 -117 0
-424 164 0
-424 -78 0
-424 -167 0
424 -52 117 -164 78 167 0
-425 -127 0
-425 177 0
-425 119 0
-425 140 0
-425 179 0
425 127 -177 -119 -140 -179 0
421 422 423 424 425 0
-426 51 0
-426 -114 0
-426 72 0
-426 160 0
-426 -171 0
426 -51 114 -72 -160 171 0
-427 85 0
-427 16 0
-427 184 0
-427 182 0
-427 59 0
427 -85 -16 -184 -182 -59 0
-428 186 0
-428 -106 0
-428 53 0
-428 -16 0
-428 -124 0
428 -186 106 -53 16 124 0
-429 -95 0
-429 -151 0
-429 -158 0
-429 -46 0
-429 -97 0
429 95 151 158 46 97 0
-430 -60 0
-430 -2 0
-430 180 0
-430 124 0
-430 -116 0
430 60 2 -180 -124 116 0
426 427 428 429 430 0
